(set-info :Origin "This instance was generated by: BanditFuzz-- an RL fuzzer for SMT solvers" )
(set-info :Author "Joe Scott, Fed Mora, Vijay Ganesh" )
(set-info :Contact "Joe Scott, joseph.scott@uwaterloo.ca")
(set-logic QF_BV)
(declare-const bool_0 Bool)
(declare-const bool_1 Bool)
(declare-const bool_2 Bool)
(declare-const bool_3 Bool)
(declare-const bool_4 Bool)
(declare-const bv_0 (_ BitVec 32))
(declare-const bv_1 (_ BitVec 32))
(declare-const bv_2 (_ BitVec 32))
(declare-const bv_3 (_ BitVec 32))
(declare-const bv_4 (_ BitVec 32))
(assert (or (bvugt (bvxnor #xd3f7bf6e  #xc97e6b77 ) (bvnand bv_1 #x4a3d5ac3 )) (or (bvuge bv_4 bv_1) (bvsle bv_4 bv_3))))
(assert (bvsge (bvand (bvlshr #x30decc9b  #x02048f86 ) (bvsdiv #x79656ec3  #xb3aa8349 )) (bvnor (bvshl bv_2 #x54415cba ) (bvsrem bv_1 #xd200f7f0 ))))
(assert (not (bvslt (bvshl bv_0 bv_4) (bvshl bv_0 #x1fc96914 ))))
(assert (or (bvule (bvlshr #xf16aadaa  bv_0) (bvnor bv_4 #x308411f7 )) (bvslt (bvmul #x9af8b52b  #x52536d37 ) (bvshl bv_4 bv_3))))
(assert (bvsgt (bvsrem (bvmul bv_2 bv_2) (bvxnor bv_0 bv_2)) (bvmul (bvnor #xa8137575  #xaff325f2 ) (bvshl bv_4 bv_0))))
(check-sat)
(exit)
